32      2       
20      16      
0       0       0       3       2       3       4       
4       2       0       3       6       7       15      
5       0       3       2       19      22      
3       0       7       1       5       
6       0       9       1       13      
8       7       0       1       9       
9       0       9       3       8       11      25      
2       10      0       3       10      16      20      
5       5       0       3       13      21      27      
6       6       0       2       12      23      
2       0       6       2       23      31      
4       4       0       1       17      
10      0       10      1       14      
8       0       1       1       22      
6       9       0       3       17      21      27      
1       7       0       2       17      18      
5       0       2       2       24      31      
2       6       0       1       28      
10      8       0       1       29      
1       0       4       1       27      
3       0       3       1       26      
8       5       0       1       28      
7       0       2       1       30      
1       9       0       1       29      
7       6       0       1       30      
10      0       3       1       28      
10      10      0       1       30      
10      0       5       1       31      
6       3       0       1       32      
7       0       4       1       32      
2       0       7       1       32      
0       0       0       0       